INPUT_PARAMETERS
# Created by Atomic Simulation Enviroment
ntype                                   1
ecutwfc                                 100
scf_nmax                                100
smearing_method                         gaussian
smearing_sigma                          0.01
kspacing                                0.08
basis_type                              lcao
ks_solver                               genelpa
mixing_type                             pulay
mixing_beta                             0.7
scf_thr                                 1e-07
out_chg                                 1
symmetry                                1
calculation                             scf
out_band                                1
force_thr                               0.001
out_stru                                1
lspinorb                                0
dft_functional                          pbe
out_mat_hs2				1
