ATOMIC_SPECIES
Al 26.982 Al_ONCV_PBE-1.0.upf

NUMERICAL_ORBITAL
Al_gga_7au_100Ry_4s4p1d.orb

LATTICE_CONSTANT
1.889716

LATTICE_VECTORS
    0.00000     3.82622     3.82622
    3.82622     0.00000     3.82622
    3.82622     3.82622     0.00000

ATOMIC_POSITIONS
Cartesian

Al
0.0
1
  0.0000000   0.0000000   0.0000000 1 1 1

